(set-logic ALL)
(declare-fun var0 () String)
(assert (str.in_re var0 (re.++ (re.union (re.+ (str.to_re "00")) (re.+ (str.to_re "11"))) (re.++ (re.+ (re.* (str.to_re "222"))) (re.++ (re.+ (re.* (str.to_re "3"))) (re.++ (re.+ (re.union (str.to_re "444") (str.to_re "55"))) (re.++ (re.+ (re.* (str.to_re "6"))) (re.++ (re.+ (re.union (str.to_re "777") (str.to_re "888"))) (re.++ (re.* (re.+ (str.to_re "9"))) (re.++ (re.+ (re.+ (str.to_re "aaa"))) (re.++ (re.* (re.* (str.to_re "bb"))) (re.++ (re.* (re.union (str.to_re "cc") (str.to_re "ddd"))) (re.++ (re.* (re.* (str.to_re "eee"))) (re.++ (re.+ (re.+ (str.to_re "fff"))) (re.++ (re.union (re.* (str.to_re "ggg")) (re.* (str.to_re "h"))) (re.++ (re.+ (re.+ (str.to_re "iii"))) (re.++ (re.+ (re.* (str.to_re "jj"))) (re.++ (re.* (re.union (str.to_re "k") (str.to_re "ll"))) (re.++ (re.* (re.+ (str.to_re "mm"))) (re.++ (re.* (re.+ (str.to_re "nn"))) (re.++ (re.* (re.* (str.to_re "ooo"))) (re.++ (re.union (re.* (str.to_re "pp")) (re.* (str.to_re "qq"))) (re.++ (re.* (re.union (str.to_re "rr") (str.to_re "sss"))) (re.++ (re.* (re.union (str.to_re "t") (str.to_re "uu"))) (re.++ (re.union (re.* (str.to_re "vv")) (re.* (str.to_re "w"))) (re.++ (re.* (re.union (str.to_re "xxx") (str.to_re "yy"))) (re.++ (re.union (re.+ (str.to_re "zz")) (re.+ (str.to_re "A"))) (re.++ (re.* (re.union (str.to_re "BB") (str.to_re "C"))) (re.++ (re.union (re.* (str.to_re "DDD")) (re.* (str.to_re "EE"))) (re.++ (re.+ (re.union (str.to_re "FF") (str.to_re "GGG"))) (re.++ (re.* (re.union (str.to_re "HHH") (str.to_re "II"))) (re.++ (re.* (re.+ (str.to_re "JJJ"))) (re.++ (re.* (re.+ (str.to_re "KKK"))) (re.++ (re.+ (re.union (str.to_re "LLL") (str.to_re "MM"))) (re.++ (re.* (re.+ (str.to_re "NN"))) (re.++ (re.+ (re.+ (str.to_re "OOO"))) (re.++ (re.* (re.+ (str.to_re "PP"))) (re.++ (re.union (re.* (str.to_re "Q")) (re.* (str.to_re "RR"))) (re.++ (re.+ (re.+ (str.to_re "S"))) (re.++ (re.union (re.union (str.to_re "TTT") (str.to_re "UU")) (re.union (str.to_re "VV") (str.to_re "W"))) (re.++ (re.+ (re.union (str.to_re "X") (str.to_re "YYY"))) (re.++ (re.union (re.+ (str.to_re "ZZZ")) (re.+ (str.to_re "!!"))) (re.++ (re.* (re.union (str.to_re """""""") (str.to_re "###"))) (re.++ (re.* (re.* (str.to_re "$$"))) (re.++ (re.union (re.* (str.to_re "%")) (re.* (str.to_re "&&"))) (re.++ (re.+ (re.union (str.to_re "'''") (str.to_re "((("))) (re.++ (re.+ (re.* (str.to_re ")))"))) (re.++ (re.* (re.+ (str.to_re "**"))) (re.++ (re.* (re.+ (str.to_re "+++"))) (re.++ (re.union (re.union (str.to_re ",,") (str.to_re "--")) (re.union (str.to_re ".") (str.to_re "/"))) (re.++ (re.union (re.union (str.to_re ":::") (str.to_re ";")) (re.union (str.to_re "<") (str.to_re "="))) (re.++ (re.union (re.+ (str.to_re ">")) (re.+ (str.to_re "?"))) (re.++ (re.+ (re.union (str.to_re "@@") (str.to_re "["))) (re.++ (re.union (re.union (str.to_re "\\\\") (str.to_re "]")) (re.union (str.to_re "^^^") (str.to_re "__"))) (re.++ (re.union (re.* (str.to_re "``")) (re.* (str.to_re "{{"))) (re.++ (re.* (re.* (str.to_re "|||"))) (re.++ (re.union (re.+ (str.to_re "}")) (re.+ (str.to_re "~~~"))) (re.++ (re.+ (re.+ (str.to_re "00"))) (re.++ (re.* (re.union (str.to_re "111") (str.to_re "22"))) (re.++ (re.* (re.+ (str.to_re "3"))) (re.++ (re.+ (re.union (str.to_re "4") (str.to_re "55"))) (re.++ (re.+ (re.+ (str.to_re "666"))) (re.++ (re.union (re.* (str.to_re "7")) (re.* (str.to_re "8"))) (re.++ (re.+ (re.+ (str.to_re "9"))) (re.++ (re.+ (re.union (str.to_re "aaa") (str.to_re "b"))) (re.union (re.* (str.to_re "c")) (re.* (str.to_re "ddd"))))))))))))))))))))))))))))))))))))))))))))))))))))))))))))))))))))
(check-sat)